Route #1: 2 48 38 32 34 19 15 49 13 46
Route #2: 16 9 26 22 17 50 12 45 4
Route #3: 23 39 14 21 11 28 24 31 3
Route #4: 1 30 18 20 42 40
Route #5: 41 25 36 6 44 10 47 37
Route #6: 29 27 8 5 51
Route #7: 35 33 7 43
Cost 758